DIMENSION: 8
EDGE_WEIGHT_TYPE: EXPLICIT
EDGE_WEIGHT_FORMAT: FULL_MATRIX
EDGE_WEIGHT_SECTION:
32767 32767 32767 19 35 96 34 86 
32767 32767 36 35 49 31 31 32767 
32767 36 32767 64 24 20 52 32767 
19 35 64 32767 64 51 64 32767 
35 49 24 64 32767 49 46 12 
96 31 20 51 49 32767 15 30 
34 31 52 64 46 15 32767 89 
86 32767 32767 32767 12 30 89 32767 
EOF